(set-option :produce-models true)
(set-logic QF_UF)
(declare-fun p25() Bool)
(declare-fun p39() Bool)
(declare-fun p36() Bool)
(declare-fun p57() Bool)
(declare-fun p31() Bool)
(declare-fun p37() Bool)
(declare-fun p46() Bool)
(declare-fun p51() Bool)
(declare-fun p50() Bool)
(declare-fun p49() Bool)
(declare-fun p19() Bool)
(declare-fun p69() Bool)
(declare-fun p11() Bool)
(declare-fun p5() Bool)
(declare-fun p18() Bool)
(declare-fun p60() Bool)
(declare-fun p17() Bool)
(declare-fun p65() Bool)
(declare-fun p35() Bool)
(declare-fun p23() Bool)
(declare-fun p32() Bool)
(declare-fun p55() Bool)
(declare-fun p38() Bool)
(declare-fun p67() Bool)
(declare-fun p28() Bool)
(declare-fun p52() Bool)
(declare-fun p54() Bool)
(declare-fun p14() Bool)
(declare-fun p48() Bool)
(declare-fun p10() Bool)
(declare-fun p47() Bool)
(declare-fun p59() Bool)
(declare-fun p12() Bool)
(declare-fun p56() Bool)
(declare-fun p33() Bool)
(declare-fun p34() Bool)
(declare-fun p29() Bool)
(declare-fun p53() Bool)
(declare-fun p15() Bool)
(declare-fun p4() Bool)
(declare-fun p6() Bool)
(declare-fun p42() Bool)
(declare-fun p41() Bool)
(declare-fun p44() Bool)
(declare-fun p3() Bool)
(declare-fun p22() Bool)
(declare-fun p62() Bool)
(declare-fun p0() Bool)
(declare-fun p64() Bool)
(declare-fun p27() Bool)
(declare-fun p26() Bool)
(declare-fun p45() Bool)
(declare-fun p24() Bool)
(declare-fun p2() Bool)
(declare-fun p43() Bool)
(declare-fun p58() Bool)
(declare-fun p13() Bool)
(declare-fun p8() Bool)
(declare-fun p7() Bool)
(declare-fun p61() Bool)
(declare-fun p63() Bool)
(declare-fun p40() Bool)
(declare-fun p21() Bool)
(declare-fun p20() Bool)
(declare-fun p9() Bool)
(declare-fun p68() Bool)
(declare-fun p1() Bool)
(declare-fun p16() Bool)
(declare-fun p66() Bool)
(declare-fun p30() Bool)
(assert
(and (or (not p25) p39 p36) (or (not p57) p25 p31) (or p37 p46 (not p51)) (or (not p50) p49 p19) (or p37 p69 p11) (or p5 p18 (not p60)) (or (not p17) (not p65) p35) (or p23 (not p32) (not p46)) (or (not p55) p38 p67) (or p28 (not p52) p32) (or (not p50) p46 p54) (or p14 p54 (not p48)) (or (not p10) (not p47) (not p59)) (or p12 p60 (not p10)) (or p56 (not p57) p37) (or (not p33) (not p38) (not p19)) (or (not p34) p29 (not p11)) (or (not p46) p53 p15) (or (not p4) p6 p42) (or p6 p28 p11) (or p69 (not p60) p6) (or p23 p4 p10) (or (not p41) (not p69) p69) (or (not p33) p60 p48) (or (not p44) (not p49) (not p17)) (or (not p54) p4 p5) (or p35 (not p15) p3) (or p22 p28 (not p52)) (or (not p62) p14 (not p0)) (or p64 (not p27) (not p26)) (or (not p10) p15 p6) (or (not p41) p4 (not p22)) (or (not p60) (not p47) (not p39)) (or p12 (not p11) p45) (or (not p36) (not p24) (not p2)) (or (not p32) p43 p25) (or p3 (not p14) p10) (or p43 p53 p27) (or p58 p57 (not p36)) (or (not p2) (not p13) (not p32)) (or p44 p49 (not p45)) (or (not p5) p0 p12) (or (not p3) p8 p7) (or p48 (not p56) p64) (or (not p54) (not p53) (not p38)) (or p24 (not p61) (not p67)) (or p13 (not p63) (not p59)) (or (not p31) (not p40) p36) (or p29 p23 (not p27)) (or (not p69) p4 (not p67)) (or (not p41) p48 p62) (or (not p38) (not p21) p24) (or p41 (not p4) (not p31)) (or (not p35) p69 (not p54)) (or (not p7) p17 (not p11)) (or p61 (not p26) p17) (or (not p31) p14 p32) (or (not p14) p34 (not p58)) (or p26 (not p48) (not p49)) (or (not p26) p49 p27) (or (not p22) p60 (not p12)) (or (not p49) p58 (not p45)) (or p42 p20 (not p13)) (or p19 p22 p58) (or (not p65) (not p40) (not p42)) (or (not p32) (not p0) p55) (or (not p32) (not p49) p40) (or (not p32) (not p29) (not p49)) (or (not p62) p55 p9) (or (not p19) (not p43) (not p22)) (or p60 (not p63) p19) (or p68 p21 (not p4)) (or p20 p11 p28) (or p11 (not p29) p36) (or p10 p46 (not p67)) (or p31 p44 p60) (or (not p61) p54 p27) (or (not p0) p12 p61) (or (not p61) (not p10) p24) (or p6 (not p69) (not p48)) (or p1 p37 p32) (or p40 (not p17) (not p67)) (or (not p5) p13 (not p64)) (or p48 p50 (not p59)) (or p16 (not p45) (not p52)) (or (not p65) p63 p11) (or (not p32) p18 p19) (or p46 p2 (not p16)) (or p34 p12 p24) (or (not p2) (not p59) p36) (or (not p41) (not p65) (not p25)) (or p1 (not p51) p18) (or (not p43) (not p67) (not p24)) (or p34 p27 p69) (or (not p47) p25 p25) (or p31 p3 p28) (or (not p16) p20 (not p28)) (or (not p24) (not p4) p10) (or (not p14) (not p36) p60) (or (not p25) p7 p36) (or p67 p14 (not p13)) (or (not p10) (not p4) p55) (or (not p56) (not p67) p49) (or (not p47) p23 (not p31)) (or (not p0) p52 p16) (or (not p32) p32 (not p24)) (or (not p64) (not p0) (not p21)) (or p29 p14 p62) (or p66 (not p11) (not p22)) (or (not p62) (not p60) (not p0)) (or (not p5) p17 (not p6)) (or (not p20) (not p12) (not p40)) (or (not p53) p28 (not p8)) (or (not p11) p36 (not p20)) (or (not p0) (not p38) (not p17)) (or p1 p61 (not p5)) (or p50 (not p45) (not p11)) (or p11 p51 p60) (or (not p23) p24 (not p42)) (or p20 (not p7) p69) (or (not p32) p68 (not p7)) (or (not p66) (not p59) p4) (or p10 p51 (not p7)) (or p65 (not p34) p67) (or (not p42) (not p39) (not p41)) (or (not p69) (not p3) (not p39)) (or (not p25) (not p15) p17) (or (not p57) p23 p43) (or (not p47) (not p29) p0) (or p19 (not p63) p28) (or (not p64) (not p17) p24) (or p0 p5 p48) (or (not p69) (not p37) p45) (or (not p5) p34 (not p64)) (or (not p14) p45 (not p32)) (or p17 p43 p66) (or (not p10) (not p4) (not p9)) (or (not p50) (not p69) (not p43)) (or p42 (not p47) p19) (or (not p11) p46 p27) (or (not p17) (not p38) (not p43)) (or p62 p54 (not p6)) (or (not p58) (not p53) p60) (or p8 (not p39) (not p14)) (or p16 (not p58) (not p2)) (or (not p42) p57 (not p33)) (or (not p26) p4 (not p20)) (or (not p55) p68 (not p10)) (or p64 p42 (not p43)) (or p6 (not p29) (not p40)) (or p19 (not p47) (not p22)) (or p27 p22 (not p47)) (or p8 p40 p1) (or (not p20) p68 p38) (or (not p34) (not p10) p53) (or (not p35) p62 (not p21)) (or p4 (not p43) (not p62)) (or p61 p65 p38) (or p16 (not p10) p43) (or (not p69) p31 (not p45)) (or (not p20) p13 p6) (or (not p19) (not p53) p28) (or p51 (not p34) p19) (or (not p58) (not p54) p8) (or (not p39) (not p62) (not p21)) (or (not p8) p0 p5) (or (not p46) (not p42) p67) (or (not p52) (not p50) p41) (or (not p24) p15 (not p58)) (or p36 (not p19) p31) (or (not p64) p9 (not p7)) (or (not p31) p65 p57) (or p64 (not p10) p6) (or p26 p57 (not p36)) (or p1 (not p3) (not p2)) (or p53 (not p46) p3) (or p1 (not p26) (not p69)) (or (not p18) p6 (not p7)) (or (not p55) p37 (not p39)) (or (not p32) (not p46) (not p18)) (or p23 p17 p30) (or (not p45) (not p8) p13) (or (not p65) (not p1) (not p2)) (or p39 (not p45) (not p45)) (or (not p17) (not p26) p24) (or (not p41) (not p56) (not p56)) (or p6 p54 p32) (or p20 p6 (not p44)) (or p5 (not p53) (not p64)) (or (not p43) p50 (not p56)) (or (not p5) (not p41) (not p66)) (or (not p5) (not p56) (not p4)) (or (not p38) (not p56) p59) (or p42 p24 (not p3)) (or (not p45) (not p21) p68) (or p15 p46 p54) (or (not p53) p14 (not p3)) (or p54 p17 (not p42)) (or p38 p41 (not p29)) (or p50 p3 p9) (or p65 p54 (not p43)) (or (not p6) p0 p34) (or p61 (not p46) (not p26)) (or p7 (not p43) p22) (or (not p55) (not p30) p40) (or (not p12) (not p7) (not p10)) (or (not p41) p8 p40) (or p61 p19 (not p7)) (or (not p46) (not p64) p61) (or (not p26) p22 (not p34)) (or (not p12) (not p17) (not p11)) (or (not p7) p24 p1) (or (not p15) p40 p18) (or p52 p36 p2) (or (not p40) (not p17) p14) (or p55 p17 (not p64)) (or (not p7) (not p29) (not p49)) (or (not p38) p27 (not p53)) (or p52 (not p43) (not p66)) (or (not p45) (not p30) (not p64)) (or (not p22) p7 p64) (or (not p43) (not p55) p5) (or (not p64) (not p23) p12) (or p16 (not p65) p43) (or p5 p55 (not p43)) (or (not p56) p51 (not p23)) (or (not p61) p13 (not p46)) (or p51 (not p14) p66) (or (not p7) (not p61) p51) (or p10 (not p5) (not p5)) (or p23 (not p1) p66) (or p5 (not p38) (not p6)) (or (not p41) (not p13) (not p22)) (or p46 p36 p44) (or (not p17) p44 p65) (or p4 p0 p29) (or p63 p28 p14) (or (not p6) p31 (not p54)) (or (not p57) (not p44) p44) (or p57 p14 p51) (or p29 p54 p7) (or p38 p15 p10) (or p13 p35 (not p19)) (or p52 p60 p43) (or p19 p3 p23) (or p2 (not p11) p9) (or p62 (not p51) (not p68)) (or p13 p18 (not p55)) (or p44 p12 p34) (or (not p47) p19 (not p62)) (or (not p17) p21 p56) (or (not p69) (not p7) (not p23)) (or p60 (not p51) p56) (or p10 p55 (not p10)) (or p49 (not p4) (not p10)) (or p16 p53 p62) (or p33 p18 (not p15)) (or p2 (not p35) p12) (or (not p60) (not p56) (not p12)) (or p53 p50 (not p28)) (or (not p42) (not p49) (not p3)) (or (not p14) p50 (not p0)) (or p56 p66 p68) (or p28 (not p51) (not p17)) (or (not p60) p31 p52) (or (not p13) (not p17) (not p37)) (or (not p56) (not p22) p36) (or (not p52) p65 (not p8)) (or (not p2) (not p2) p39) (or (not p19) (not p14) (not p65)) (or p61 (not p55) (not p37)) (or p65 (not p1) (not p68)) (or (not p1) p17 (not p48)) (or (not p12) (not p50) p42) (or (not p62) (not p65) (not p54)) (or p38 p6 p52) (or p50 (not p58) p39) (or p32 (not p28) p34) (or (not p56) p53 p0) (or p10 (not p34) p37) (or (not p4) p11 p45) (or p64 (not p56) (not p57)) (or (not p36) p5 p55) (or p33 p4 (not p58)) (or (not p33) (not p1) (not p64)) (or (not p46) (not p65) p63) (or (not p65) (not p25) p14) (or p18 p17 (not p29)) (or (not p3) p68 p62) (or (not p69) p40 p13) (or (not p2) p4 (not p60)) (or (not p4) p4 p60) (or p12 (not p54) (not p12)) (or p40 (not p9) (not p6)) (or p17 (not p43) (not p57)) (or (not p69) p25 (not p28)) (or (not p60) (not p24) (not p46)))
)
(check-sat)
(get-model)
